p edge 40 240
e 1 2
e 1 3
e 1 4
e 1 5
e 1 6
e 1 7
e 1 8
e 1 9
e 1 10
e 1 11
e 1 12
e 1 13
e 2 3
e 2 4
e 2 14
e 2 15
e 2 16
e 2 17
e 2 18
e 2 19
e 2 20
e 2 21
e 2 22
e 3 4
e 3 23
e 3 27
e 3 28
e 3 35
e 3 36
e 3 37
e 3 38
e 3 39
e 3 40
e 4 24
e 4 25
e 4 26
e 4 29
e 4 30
e 4 31
e 4 32
e 4 33
e 4 34
e 5 8
e 5 9
e 5 16
e 5 19
e 5 21
e 5 23
e 5 25
e 5 31
e 5 34
e 5 39
e 5 40
e 6 11
e 6 12
e 6 14
e 6 17
e 6 18
e 6 23
e 6 26
e 6 32
e 6 33
e 6 39
e 6 40
e 7 10
e 7 13
e 7 15
e 7 20
e 7 22
e 7 23
e 7 24
e 7 29
e 7 30
e 7 39
e 7 40
e 8 9
e 8 14
e 8 17
e 8 18
e 8 24
e 8 27
e 8 29
e 8 30
e 8 35
e 8 37
e 9 15
e 9 20
e 9 22
e 9 26
e 9 28
e 9 32
e 9 33
e 9 36
e 9 38
e 10 13
e 10 14
e 10 17
e 10 18
e 10 25
e 10 28
e 10 31
e 10 34
e 10 36
e 10 38
e 11 12
e 11 16
e 11 19
e 11 21
e 11 24
e 11 28
e 11 29
e 11 30
e 11 36
e 11 38
e 12 15
e 12 20
e 12 22
e 12 25
e 12 27
e 12 31
e 12 34
e 12 35
e 12 37
e 13 16
e 13 19
e 13 21
e 13 26
e 13 27
e 13 32
e 13 33
e 13 35
e 13 37
e 14 20
e 14 21
e 14 23
e 14 26
e 14 30
e 14 31
e 14 37
e 14 38
e 15 18
e 15 19
e 15 23
e 15 24
e 15 32
e 15 34
e 15 37
e 15 38
e 16 17
e 16 22
e 16 23
e 16 25
e 16 29
e 16 33
e 16 37
e 16 38
e 17 22
e 17 24
e 17 28
e 17 32
e 17 34
e 17 35
e 17 40
e 18 19
e 18 25
e 18 27
e 18 29
e 18 33
e 18 36
e 18 39
e 19 26
e 19 28
e 19 30
e 19 31
e 19 35
e 19 40
e 20 21
e 20 25
e 20 28
e 20 29
e 20 33
e 20 35
e 20 40
e 21 24
e 21 27
e 21 32
e 21 34
e 21 36
e 21 39
e 22 26
e 22 27
e 22 30
e 22 31
e 22 36
e 22 39
e 23 24
e 23 25
e 23 26
e 23 27
e 23 28
e 24 31
e 24 33
e 24 35
e 24 36
e 25 30
e 25 32
e 25 35
e 25 36
e 26 29
e 26 34
e 26 35
e 26 36
e 27 28
e 27 29
e 27 31
e 27 32
e 28 30
e 28 33
e 28 34
e 29 34
e 29 38
e 29 40
e 30 32
e 30 37
e 30 39
e 31 33
e 31 38
e 31 40
e 32 38
e 32 40
e 33 37
e 33 39
e 34 37
e 34 39
e 35 38
e 35 39
e 36 37
e 36 40
e 37 40
e 38 39
